\ENCODING=ISO-8859-1
\Problem name: IloCplex

Minimize
 obj1: 10 x_0 + 8 x_1 + 12 x_2 + 3 y_0_0 + 2 y_0_1 + 7 y_0_2 + 6 y_0_3
       + 4 y_1_0 + y_1_1 + 5 y_1_2 + 8 y_1_3 + 6 y_2_0 + 3 y_2_1 + 2 y_2_2
       + 4 y_2_3 + 7 p_0 + 6 p_1 + 5 p_2
Subject To
 c1:  y_0_0 + y_1_0 + y_2_0  = 1
 c2:  y_0_1 + y_1_1 + y_2_1  = 1
 c3:  y_0_2 + y_1_2 + y_2_2  = 1
 c4:  y_0_3 + y_1_3 + y_2_3  = 1
 c5:  x_0 - y_0_0 >= 0
 c6:  x_0 - y_0_1 >= 0
 c7:  x_0 - y_0_2 >= 0
 c8:  x_0 - y_0_3 >= 0
 c9:  x_1 - y_1_0 >= 0
 c10: x_1 - y_1_1 >= 0
 c11: x_1 - y_1_2 >= 0
 c12: x_1 - y_1_3 >= 0
 c13: x_2 - y_2_0 >= 0
 c14: x_2 - y_2_1 >= 0
 c15: x_2 - y_2_2 >= 0
 c16: x_2 - y_2_3 >= 0
 c17: - y_0_0 - y_0_1 + p_0 >= -1
 c18: - y_1_0 - y_1_1 + p_0 >= -1
 c19: - y_2_0 - y_2_1 + p_0 >= -1
 c20: - y_0_0 - y_0_3 + p_1 >= -1
 c21: - y_1_0 - y_1_3 + p_1 >= -1
 c22: - y_2_0 - y_2_3 + p_1 >= -1
 c23: - y_0_1 - y_0_2 + p_2 >= -1
 c24: - y_1_1 - y_1_2 + p_2 >= -1
 c25: - y_2_1 - y_2_2 + p_2 >= -1
Bounds
 0 <= x_0 <= 1
 0 <= x_1 <= 1
 0 <= x_2 <= 1
 0 <= y_0_0 <= 1
 0 <= y_0_1 <= 1
 0 <= y_0_2 <= 1
 0 <= y_0_3 <= 1
 0 <= y_1_0 <= 1
 0 <= y_1_1 <= 1
 0 <= y_1_2 <= 1
 0 <= y_1_3 <= 1
 0 <= y_2_0 <= 1
 0 <= y_2_1 <= 1
 0 <= y_2_2 <= 1
 0 <= y_2_3 <= 1
 0 <= p_0 <= 1
 0 <= p_1 <= 1
 0 <= p_2 <= 1
Binaries
 x_0  x_1  x_2  y_0_0  y_0_1  y_0_2  y_0_3  y_1_0  y_1_1  y_1_2  y_1_3  y_2_0 
 y_2_1  y_2_2  y_2_3  p_0  p_1  p_2 
End
